50
    1    18    18
    2    45    45
    3    19    19
    4    17    17
    5     5     5
    6    27    27
    7    26    26
    8    21    21
    9    15    15
   10    22    22
   11    14    14
   12    24    24
   13    28    28
   14    22    22
   15    18    18
   16    42    42
   17    10    10
   18     7     7
   19    21    21
   20    13    13
   21    10    10
   22    14    14
   23     8     8
   24    14    14
   25     3     3
   26    20    20
   27    21    21
   28    11    11
   29    17    17
   30     4     4
   31    41    41
   32    47    47
   33    22    22
   34    27    27
   35     7     7
   36    11    11
   37    24    24
   38     9     9
   39    49    49
   40     4     4
   41    14    14
   42    46    46
   43    28    28
   44    22    22
   45    47    47
   46    37    37
   47     7     7
   48    31    31
   49    19    19
   50    46    46
537
